120
150
73
78
86
84
66
34
46
29
85
34
53
24
73
40
29
32
46
82
32
58
93
32
31
34
75
54
22
99
46
94
44
84
89
52
82
81
26
91
40
93
96
54
78
79
77
31
75
86
34
86
39
84
86
64
64
66
98
98
52
52
100
84
98
96
46
68
82
52
54
22
96
54
75
71
69
84
96
75
89
54
89
25
85
99
60
24
89
46
72
80
73
36
60
34
91
29
35
46
75
26
25
77
24
66
34
73
35
20
55
94
31
100
46
98
84
34
52
25
35
66
